# Solution for model probrema
# Objective value = 7.1721853333748995e+03
X_0_12 0
X_0_13 0
X_0_14 0
X_0_15 0
X_1_12 0
X_1_13 0
X_1_14 0
X_1_15 0
X_2_12 0
X_2_13 0
X_2_14 0
X_2_15 0
X_3_12 0
X_3_13 0
X_3_14 0
X_3_15 0
X_4_12 0
X_4_13 0
X_4_14 0
X_4_15 0
X_5_12 0
X_5_13 0
X_5_14 0
X_5_15 0
X_6_12 0
X_6_13 0
X_6_14 0
X_6_15 0
X_7_12 0
X_7_13 0
X_7_14 0
X_7_15 0
X_8_12 0
X_8_13 0
X_8_14 0
X_8_15 0
X_9_12 0
X_9_13 0
X_9_14 0
X_9_15 0
X_0_10 0
X_0_11 0
X_1_10 0
X_1_11 0
X_2_10 0
X_2_11 0
X_3_10 0
X_3_11 0
X_4_10 0
X_4_11 0
X_5_10 0
X_5_11 0
X_6_10 0
X_6_11 0
X_7_10 0
X_7_11 0
X_8_10 0
X_8_11 0
X_9_10 100
X_9_11 0
X_10_12 0
X_11_12 0
X_10_13 90
X_11_13 0
X_10_14 0
X_11_14 0
X_10_15 10
X_11_15 0
X_12_16 0
X_13_16 90
X_14_16 0
X_15_16 10
